(set-logic ALL)
(set-option :produce-models true)
(declare-sort BoundSet 0)
(declare-sort UnboundSet 0)
(set-option :finite-model-find true)
(declare-fun IsAbout (BoundSet BoundSet) Bool)
(declare-fun IncludesFears (BoundSet BoundSet) Bool)
(declare-fun IsOfRise (BoundSet BoundSet) Bool)
(declare-fun AreWorseThan (BoundSet) Bool)
(declare-fun IsWithinLifetime (BoundSet BoundSet) Bool)
(assert (not (=> (exists ((a BoundSet)) (exists ((c BoundSet)) (exists ((d BoundSet)) (exists ((b BoundSet)) (and (IsAbout b c) (and (IncludesFears b d) (IsOfRise d a))))))) (exists ((a BoundSet)) (exists ((f BoundSet)) (exists ((e BoundSet)) (and (AreWorseThan a) (IsWithinLifetime e f))))))))
(check-sat)
(get-model)